40
    61    57    26    79     2    26    74    27    25    52    22    15    61    51    54    23    70    92    29    33    39    99    87    34    83    45    45    14    45    61    97    65    97    27    16    84    39    78    55    70
     4    10     3     6     3     9     2     8    10     2    10     9    10     6     8     1     6     2     8     1    10     8     9     6     3     5     1     3     3     5     8    10     7     1     8     7     1     5     2     4
  1005   694     0   268   301   136    86    41   179     0   319     0   826     0   433   269    64     0   917   376   629   506   560    78   810   704   973     0   497   177   606     0   448   752   495   791   946     0   753   554
